NAME : 05.txt
TYPE : TSP
DIMENSION : 117
EDGE_WEIGHT_TYPE : EUC_2D
NODE_COORD_SECTION
1 0 0
2 -3 2
3 -5 4
4 -7 5
5 -8 6
6 -9 6
7 -10 7
8 -10 7
9 -11 8
10 -13 9
11 -14 11
12 -14 14
13 -14 17
14 -13 19
15 -12 22
16 -12 25
17 -11 28
18 -10 30
19 -10 33
20 -9 37
21 -7 41
22 -5 46
23 -3 50
24 0 54
25 3 57
26 7 59
27 10 62
28 12 64
29 13 66
30 14 67
31 16 67
32 18 68
33 19 68
34 20 67
35 22 67
36 23 66
37 25 64
38 28 63
39 32 63
40 37 64
41 41 64
42 44 64
43 48 64
44 53 63
45 59 63
46 64 63
47 70 62
48 76 62
49 83 62
50 89 62
51 95 61
52 102 60
53 108 60
54 113 59
55 118 59
56 123 59
57 129 60
58 135 60
59 140 59
60 144 59
61 148 59
62 152 58
63 157 58
64 161 57
65 164 55
66 166 54
67 169 53
68 172 51
69 174 48
70 176 45
71 178 43
72 181 42
73 182 43
74 182 44
75 182 44
76 182 44
77 182 45
78 181 47
79 179 48
80 177 50
81 176 51
82 175 51
83 175 52
84 174 53
85 172 53
86 171 54
87 170 55
88 170 57
89 171 59
90 173 61
91 174 63
92 176 64
93 179 64
94 182 65
95 184 66
96 187 68
97 190 70
98 194 72
99 201 75
100 205 77
101 208 80
102 210 84
103 211 88
104 212 93
105 214 97
106 216 102
107 217 108
108 217 114
109 217 120
110 216 126
111 216 132
112 217 139
113 219 145
114 220 150
115 221 155
116 221 161
117 220 166
EOF
